
Gurobi 11.0.0 (linux64) logging started Thu Dec  5 15:06:06 2024

Set parameter LogFile to value "gurobi.log"
Set parameter InfUnbdInfo to value 1
Gurobi Optimizer version 11.0.0 build v11.0.0rc2 (linux64 - "Ubuntu 22.04.4 LTS")

CPU model: AMD EPYC 7V13 64-Core Processor, instruction set [SSE2|AVX|AVX2]
Thread count: 128 physical cores, 128 logical processors, using up to 32 threads

Optimize a model with 106 rows, 429 columns and 329 nonzeros
Model fingerprint: 0xc7d1a965
Model has 312 quadratic constraints
Model has 30 general constraints
Variable types: 95 continuous, 334 integer (0 binary)
Coefficient statistics:
  Matrix range     [1e+00, 2e+01]
  QMatrix range    [1e+00, 2e+02]
  QLMatrix range   [1e+00, 2e+02]
  Objective range  [1e+00, 1e+00]
  Bounds range     [1e+00, 2e+06]
  RHS range        [1e+00, 2e+06]
  QRHS range       [2e+02, 9e+03]
Using branch priorities (all 0).
Presolve added 84 rows and 46 columns
Presolve time: 0.01s
Presolved: 1029 rows, 885 columns, 3660 nonzeros
Presolved model has 269 SOS constraint(s)
Presolved model has 87 bilinear constraint(s)
Warning: Model contains variables with very large bounds participating
         in product terms.
         Presolve was not able to compute smaller bounds for these variables.
         Consider bounding these variables or reformulating the model.


Solving non-convex MIQCP

Variable types: 247 continuous, 638 integer (238 binary)

Root relaxation: objective 1.785656e+02, 331 iterations, 0.00 seconds (0.00 work units)

    Nodes    |    Current Node    |     Objective Bounds      |     Work
 Expl Unexpl |  Obj  Depth IntInf | Incumbent    BestBd   Gap | It/Node Time

     0     0  178.56561    0  182          -  178.56561      -     -    0s
     0     0  178.57041    0  174          -  178.57041      -     -    0s
     0     0  317.06304    0  262          -  317.06304      -     -    0s
H    0     0                    254418.87500  355.14705   100%     -    0s
H    0     0                    176798.06900  355.14705   100%     -    0s
     0     0  355.14705    0  286 176798.069  355.14705   100%     -    0s
     0     0  376.84156    0  320 176798.069  376.84156   100%     -    0s
H    0     0                    134796.75650  376.84156   100%     -    0s
     0     0  500.31109    0  274 134796.757  500.31109   100%     -    0s
     0     0  782.72321    0  274 134796.757  782.72321  99.4%     -    0s
H    0     0                    114952.00000  782.72321  99.3%     -    0s
     0     0 1125.55317    0  269 114952.000 1125.55317  99.0%     -    0s
     0     0 2583.29884    0  153 114952.000 2583.29884  97.8%     -    0s
H    0     0                    114951.93750 2583.29884  97.8%     -    0s
     0     0 2873.19587    0  259 114951.937 2873.19587  97.5%     -    0s
     0     0 3031.22044    0  287 114951.937 3031.22044  97.4%     -    0s
     0     0 3063.91484    0  326 114951.937 3063.91484  97.3%     -    0s
     0     0 3185.60920    0  303 114951.937 3185.60920  97.2%     -    0s
H    0     0                    113202.00000 3185.60920  97.2%     -    0s
     0     0 3327.29643    0  306 113202.000 3327.29643  97.1%     -    0s
H    0     0                    105898.06250 3535.05350  96.7%     -    0s
     0     0 3535.05350    0  296 105898.062 3535.05350  96.7%     -    0s
H    0     0                    105897.68750 3535.05350  96.7%     -    0s
     0     0 3787.84502    0  291 105897.687 3787.84502  96.4%     -    0s
     0     0 4531.30704    0  307 105897.687 4531.30704  95.7%     -    0s
     0     0 4531.30704    0  307 105897.687 4531.30704  95.7%     -    0s
     0     0 4685.46381    0  304 105897.687 4685.46381  95.6%     -    0s
     0     0 5147.54161    0  288 105897.687 5147.54161  95.1%     -    0s
     0     0 5521.33890    0  281 105897.687 5521.33890  94.8%     -    0s
     0     0 6139.77133    0  260 105897.687 6139.77133  94.2%     -    0s
     0     0 6333.51350    0  245 105897.687 6333.51350  94.0%     -    0s
     0     0 6456.53942    0  271 105897.687 6456.53942  93.9%     -    0s
     0     0 6735.11407    0  262 105897.687 6735.11407  93.6%     -    0s
     0     0 7601.33537    0  292 105897.687 7601.33537  92.8%     -    0s
     0     0 7629.10033    0  228 105897.687 7629.10033  92.8%     -    0s
     0     0 7940.84883    0  242 105897.687 7940.84883  92.5%     -    0s
H    0     0                    54651.604871 8462.09045  84.5%     -    0s
     0     0 8462.09045    0  256 54651.6049 8462.09045  84.5%     -    0s
     0     0 9082.14872    0  205 54651.6049 9082.14872  83.4%     -    0s
     0     0 9237.69042    0  193 54651.6049 9237.69042  83.1%     -    0s
     0     0 9563.23222    0  209 54651.6049 9563.23222  82.5%     -    0s
     0     0 10448.1708    0  238 54651.6049 10448.1708  80.9%     -    0s
     0     0 10521.8933    0  248 54651.6049 10521.8933  80.7%     -    0s
     0     0 10812.3156    0  255 54651.6049 10812.3156  80.2%     -    0s
     0     0 11604.1408    0  249 54651.6049 11604.1408  78.8%     -    0s
     0     0 12369.0150    0  250 54651.6049 12369.0150  77.4%     -    0s
     0     0 12369.0150    0  252 54651.6049 12369.0150  77.4%     -    0s
     0     0 12844.3914    0  219 54651.6049 12844.3914  76.5%     -    0s
     0     0 12888.5079    0  251 54651.6049 12888.5079  76.4%     -    0s
     0     0 13070.8009    0  249 54651.6049 13070.8009  76.1%     -    0s
     0     0 13258.5607    0  250 54651.6049 13258.5607  75.7%     -    0s
     0     0 13506.7866    0  249 54651.6049 13506.7866  75.3%     -    0s
     0     0 13579.3190    0  247 54651.6049 13579.3190  75.2%     -    0s
     0     0 14555.6684    0  247 54651.6049 14555.6684  73.4%     -    0s
     0     0 14783.2014    0  247 54651.6049 14783.2014  73.0%     -    0s
H    0     0                    52557.348053 15741.1626  70.0%     -    0s
H    0     0                    48385.725838 16213.2375  66.5%     -    0s
H    0     0                    48385.475838 16213.2375  66.5%     -    0s
     0     0 19798.4821    0  247 48385.4758 19798.4821  59.1%     -    1s
     0     0 20560.6783    0  251 48385.4758 20560.6783  57.5%     -    1s
H    0     0                    46679.046688 21655.8889  53.6%     -    1s
H    0     0                    45838.796688 21655.8889  52.8%     -    1s
     0     0 21655.8889    0  251 45838.7967 21655.8889  52.8%     -    1s
     0     0 21929.9822    0  250 45838.7967 21929.9822  52.2%     -    1s
     0     0 22400.9918    0  250 45838.7967 22400.9918  51.1%     -    1s
     0     0 22404.5026    0  250 45838.7967 22404.5026  51.1%     -    1s
H    0     0                    44221.555000 24599.9622  44.4%     -    1s
     0     0 24599.9622    0   99 44221.5550 24599.9622  44.4%     -    1s
     0     0 24599.9622    0   62 44221.5550 24599.9622  44.4%     -    2s
     0     0 24599.9622    0  110 44221.5550 24599.9622  44.4%     -    2s
     0     0 24599.9622    0   99 44221.5550 24599.9622  44.4%     -    2s
     0     0 24599.9622    0   82 44221.5550 24599.9622  44.4%     -    3s
     0     0 24599.9622    0   96 44221.5550 24599.9622  44.4%     -    3s
     0     0 24599.9622    0   89 44221.5550 24599.9622  44.4%     -    3s
     0     0 24599.9622    0   97 44221.5550 24599.9622  44.4%     -    3s
     0     0 24599.9622    0   67 44221.5550 24599.9622  44.4%     -    4s
     0     0 24599.9622    0  125 44221.5550 24599.9622  44.4%     -    4s
     0     0 24599.9622    0   52 44221.5550 24599.9622  44.4%     -    4s
     0     0 24599.9622    0   45 44221.5550 24599.9622  44.4%     -    6s
     0     2 24599.9622    0   45 44221.5550 24599.9622  44.4%     -    6s
H 1276   183                    44221.492500 24599.9622  44.4%  23.1    9s
  1789   125 42077.4115   26   16 44221.4925 26950.4594  39.1%  19.7   10s

Cutting planes:
  Gomory: 1
  Cover: 5
  Implied bound: 276
  Clique: 1
  MIR: 12
  StrongCG: 1
  Flow cover: 9
  Zero half: 1
  Mod-K: 1
  Network: 1
  RLT: 21
  Relax-and-lift: 12

Explored 2948 nodes (47481 simplex iterations) in 11.46 seconds (0.93 work units)
Thread count was 32 (of 128 available processors)

Solution count 10: 44221.5 44221.6 45838.8 ... 105898

Optimal solution found (tolerance 1.00e-04)
Warning: max constraint violation (9.5474e-04) exceeds tolerance
Warning: max general constraint violation (9.5474e-04) exceeds tolerance
Best objective 4.422149249975e+04, best bound 4.422149249975e+04, gap 0.0000%
